c numero: 77
c nombre: n-60-d-0.1
c densidad: 0.1
p edges 60 186
e 1 10
e 1 33
e 1 35
e 1 49
e 1 51
e 1 57
e 2 11
e 2 20
e 2 29
e 2 34
e 2 51
e 2 58
e 3 8
e 3 27
e 3 44
e 3 52
e 3 58
e 4 10
e 4 26
e 4 32
e 4 36
e 4 38
e 4 40
e 4 41
e 4 44
e 4 54
e 5 13
e 5 16
e 5 19
e 5 30
e 5 32
e 5 36
e 5 39
e 6 17
e 6 23
e 6 29
e 6 50
e 7 21
e 7 26
e 7 29
e 7 31
e 7 46
e 8 12
e 8 21
e 8 26
e 8 28
e 8 35
e 9 23
e 9 47
e 9 52
e 10 12
e 10 21
e 10 36
e 10 40
e 10 41
e 11 13
e 11 31
e 11 35
e 11 41
e 11 53
e 11 55
e 11 59
e 12 14
e 12 15
e 12 18
e 12 24
e 12 32
e 12 37
e 12 53
e 13 20
e 13 43
e 13 47
e 13 51
e 13 58
e 14 25
e 14 29
e 14 32
e 14 34
e 14 44
e 14 47
e 14 54
e 15 16
e 15 24
e 15 39
e 16 17
e 16 24
e 16 27
e 16 46
e 16 50
e 17 23
e 17 41
e 18 22
e 18 27
e 18 28
e 18 33
e 18 43
e 18 44
e 18 45
e 18 55
e 18 59
e 18 60
e 19 39
e 19 47
e 19 51
e 19 52
e 19 57
e 20 31
e 20 36
e 20 40
e 20 59
e 21 23
e 21 43
e 21 49
e 21 57
e 22 26
e 23 36
e 23 37
e 24 28
e 24 29
e 24 31
e 24 33
e 24 50
e 25 28
e 25 32
e 25 58
e 26 29
e 26 30
e 26 38
e 26 48
e 27 33
e 27 40
e 27 41
e 27 45
e 28 33
e 28 35
e 28 55
e 29 41
e 29 42
e 29 60
e 30 31
e 30 51
e 31 51
e 32 38
e 32 39
e 32 50
e 32 60
e 34 47
e 34 51
e 35 45
e 35 52
e 35 56
e 35 59
e 36 37
e 36 44
e 36 57
e 38 42
e 38 53
e 38 55
e 39 42
e 39 58
e 40 43
e 40 57
e 41 54
e 41 56
e 42 55
e 43 54
e 44 46
e 44 50
e 44 51
e 44 60
e 45 51
e 46 56
e 47 49
e 47 53
e 47 59
e 48 57
e 49 55
e 49 56
e 50 52
e 50 55
e 50 56
e 51 53
e 52 54
e 53 59
e 55 57
e 57 58
